NAME : P = NP
TYPE : TSP
DIMENSION : 72
EDGE_WEIGHT_TYPE : EUC_2D
NODE_COORD_SECTION
0 54 470
1 46 374
2 76 234
3 52 718
4 47 677
5 138 157
6 131 226
7 35 36
8 371 13
9 8 137
10 83 363
11 441 138
12 104 42
13 36 312
14 65 175
15 539 264
16 62 701
17 399 142
18 448 121
19 13 582
20 299 708
21 515 3
22 57 241
23 16 122
24 310 279
25 410 417
26 94 14
27 216 669
28 424 567
29 161 617
30 90 6
31 132 193
32 77 223
33 320 45
34 6 58
35 106 207
36 119 37
37 430 430
38 12 127
39 49 60
40 151 137
41 148 109
42 27 274
43 205 112
44 433 75
45 237 559
46 52 165
47 243 30
48 12 261
49 94 13
50 103 65
51 677 3
52 38 122
53 138 227
54 159 780
55 542 579
56 437 372
57 233 37
58 40 37
59 452 131
60 247 118
61 26 138
62 591 269
63 47 776
64 358 641
65 166 253
66 33 479
67 104 87
68 214 369
69 447 10
70 3 721
71 0 60